WARNING: for repeatability, setting FPU to use double precision
============================[ Problem Statistics ]=============================
|                                                                             |
|  Number of variables:        176431                                         |
|  Number of clauses:          405250                                         |
|  Parse time:                   0.12 s                                       |
|                                                                             |
============================[ Search Statistics ]==============================
| Conflicts |          ORIGINAL         |          LEARNT          | Progress |
|           |    Vars  Clauses Literals |    Limit  Clauses Lit/Cl |          |
===============================================================================
|       100 |   96092   387878   872648 |   142221      100     39 | 45.536 % |
|       250 |   96092   387878   872648 |   156444      250     40 | 45.536 % |
|       475 |   96092   387878   872648 |   172088      475     45 | 45.536 % |
|       812 |   96092   387878   872648 |   189297      812     61 | 45.536 % |
|      1318 |   96092   387878   872648 |   208227     1318     60 | 45.536 % |
|      2077 |   96092   387878   872648 |   229049     2077     55 | 45.536 % |
|      3216 |   96092   387878   872648 |   251954     3216     49 | 45.536 % |
|      4924 |   96092   387878   872648 |   277150     4924     55 | 45.536 % |
|      7486 |   96092   387878   872648 |   304865     7486     70 | 45.536 % |
|     11330 |   96092   387878   872648 |   335351    11330     69 | 45.536 % |
|     17096 |   96092   387878   872648 |   368887    17096     68 | 45.536 % |
===============================================================================
restarts              : 71
conflicts             : 20545          (3261 /sec)
decisions             : 60225          (0.00 % random) (9559 /sec)
propagations          : 36751652       (5833232 /sec)
conflict literals     : 1345557        (44.60 % deleted)
Memory used           : 53.00 MB
CPU time              : 6.30039 s

UNSATISFIABLE
